db/data/39331086018995248054680276862696812108.z3.out
-------------------
2500.075150444
